************************************************************************
file with basedata            : j60_53.bas
initial value random generator: 800815341
************************************************************************
projects                      :  1
jobs (incl. supersource/sink ):  62
horizon                       :  347
RESOURCES
  - renewable                 :  4   R
  - nonrenewable              :  0   N
  - doubly constrained        :  0   D
************************************************************************
PROJECT INFORMATION:
pronr.  #jobs rel.date duedate tardcost  MPM-Time
    1     60      0       75       45       75
************************************************************************
PRECEDENCE RELATIONS:
jobnr.    #modes  #successors   successors
   1        1          3           2   3   4
   2        1          3          44  46  50
   3        1          3           5   6   7
   4        1          3          13  18  40
   5        1          2           9  29
   6        1          3          12  24  30
   7        1          3           8  10  16
   8        1          3          11  23  55
   9        1          3          21  44  54
  10        1          3          28  51  59
  11        1          3          15  19  45
  12        1          3          14  17  22
  13        1          3          19  30  48
  14        1          3          20  29  31
  15        1          3          22  26  37
  16        1          1          51
  17        1          3          25  33  38
  18        1          3          21  27  37
  19        1          3          24  39  57
  20        1          3          27  34  45
  21        1          3          24  25  43
  22        1          2          32  56
  23        1          3          25  31  36
  24        1          2          28  52
  25        1          2          45  47
  26        1          2          34  36
  27        1          3          28  41  46
  28        1          1          60
  29        1          2          32  38
  30        1          3          31  35  41
  31        1          3          32  42  53
  32        1          1          39
  33        1          3          36  40  41
  34        1          2          39  49
  35        1          2          37  38
  36        1          2          47  61
  37        1          2          42  52
  38        1          2          51  54
  39        1          2          43  50
  40        1          3          43  46  58
  41        1          2          42  44
  42        1          2          49  50
  43        1          1          52
  44        1          2          49  53
  45        1          3          48  53  57
  46        1          2          47  55
  47        1          1          48
  48        1          1          59
  49        1          1          56
  50        1          1          54
  51        1          1          55
  52        1          1          59
  53        1          1          58
  54        1          1          58
  55        1          2          56  57
  56        1          2          60  61
  57        1          1          60
  58        1          1          61
  59        1          1          62
  60        1          1          62
  61        1          1          62
  62        1          0        
************************************************************************
REQUESTS/DURATIONS:
jobnr. mode duration  R 1  R 2  R 3  R 4
------------------------------------------------------------------------
  1      1     0       0    0    0    0
  2      1     8      10    4    0   10
  3      1     2       9    0    0    8
  4      1     2       2    7    0    8
  5      1     5       0    0    4    8
  6      1    10       0    1    3    0
  7      1     7      10    0    0    6
  8      1     3       0    5    0    0
  9      1     9       9    0    0    1
 10      1     9       1    0    0    6
 11      1     8      10    8    0    0
 12      1     8       0    0    5    8
 13      1    10       0   10   10   10
 14      1     1       0   10    7    0
 15      1     8       0    0    6    9
 16      1     8       9    0    0    0
 17      1     3       0    0    9    1
 18      1     2       0    0    6    0
 19      1     6       0    0    2    0
 20      1     9       0    9    0    4
 21      1     2       9    0    1    1
 22      1     9       6    0    0    0
 23      1     7       2    0    0    0
 24      1     3      10    2    0    0
 25      1     1       0    4    0    5
 26      1     5       0    6    0    3
 27      1     3       0    0    3    0
 28      1     7       0    0    4    3
 29      1    10       0    5    0    0
 30      1     6       0    4    0    0
 31      1     5       0    8    0    4
 32      1     2       2    9    2    2
 33      1     9       7    4    1    5
 34      1     3       0    0    6    0
 35      1     5       9    0    0    0
 36      1     7       8    0    8    2
 37      1     5       8    0    3    7
 38      1     8       3    7    0    0
 39      1     1       8    1    3   10
 40      1     8       0    0    1    1
 41      1     9       0    2    0    7
 42      1    10       3    0    0    0
 43      1     3       5    1    6    0
 44      1     7       7    0    9    0
 45      1     9       9    8    3    1
 46      1     6       0    0    0    7
 47      1     7       0   10    6    0
 48      1     8       0    2    5    0
 49      1     1       0    0    0    5
 50      1     1       2    0    0    0
 51      1     3       6    0    0    0
 52      1     6       3    0    0    8
 53      1     6       0    7    5   10
 54      1     5       0    0    5    7
 55      1     9       0    1    3    2
 56      1     5       0   10    0    5
 57      1    10       3    0    0    8
 58      1     2       0    1    0    0
 59      1     2       0    2    1    7
 60      1    10       0    0    3    9
 61      1     4       3    0    0    8
 62      1     0       0    0    0    0
************************************************************************
RESOURCEAVAILABILITIES:
  R 1  R 2  R 3  R 4
   15   14   13   15
************************************************************************
